750
750
525
524
523
523
522
521
521
520
520
519
518
518
516
516
515
514
514
513
513
512
511
511
511
511
510
509
508
507
506
506
506
505
504
504
503
502
501
500
500
500
499
498
498
498
497
496
496
496
495
495
495
494
493
492
491
491
490
490
489
488
487
487
487
487
486
484
483
481
481
480
480
480
478
478
478
478
477
476
476
476
476
475
475
475
474
471
470
470
469
468
467
466
465
465
465
465
464
464
463
462
462
462
460
459
459
457
457
457
453
453
453
450
450
449
448
448
446
445
443
442
441
441
441
440
439
439
439
439
438
438
437
436
435
433
433
433
433
433
433
431
431
431
430
430
429
428
428
427
427
427
427
427
426
426
425
425
425
424
423
422
422
421
421
421
421
420
419
419
419
419
418
417
417
416
415
415
413
412
412
411
410
410
408
408
407
407
407
406
404
404
403
403
403
403
401
400
400
399
399
399
398
398
398
397
397
395
395
393
393
392
392
391
391
391
390
390
389
389
386
386
385
385
383
383
383
382
382
381
380
380
380
379
377
375
375
375
374
374
373
373
373
373
372
372
372
372
371
369
368
367
367
366
366
366
365
364
364
363
362
361
361
360
360
358
357
356
354
352
352
351
350
350
348
346
346
345
344
344
343
343
342
341
341
340
339
339
338
338
337
336
335
335
334
334
333
332
332
330
330
330
329
329
329
329
327
327
326
326
326
326
325
324
324
324
323
323
321
319
318
318
317
317
317
316
315
314
314
314
314
313
312
312
312
312
312
310
310
309
308
307
306
306
306
306
303
303
303
302
302
300
299
299
298
297
296
294
293
293
291
290
290
289
288
288
288
288
287
287
287
287
287
286
286
286
285
284
284
284
283
283
283
282
282
282
282
280
280
280
279
279
278
278
278
278
278
277
276
276
275
275
274
273
273
272
270
269
269
269
268
268
268
268
267
267
267
267
267
266
266
265
264
262
262
261
260
260
259
259
259
258
257
257
256
255
255
254
253
252
252
252
249
248
247
246
246
246
246
246
246
244
242
242
241
241
241
236
235
235
235
234
234
234
233
232
232
231
229
228
227
227
227
225
225
224
224
223
221
221
221
220
220
220
218
218
217
217
216
216
216
216
214
214
213
212
212
212
211
209
208
207
207
206
206
205
204
204
204
203
203
202
202
201
200
200
200
200
198
197
197
196
196
196
196
195
195
194
194
194
194
193
192
192
192
192
190
189
188
188
186
186
185
185
184
184
183
182
181
181
181
179
179
179
176
176
175
175
173
172
170
170
170
170
170
169
167
165
165
165
164
164
163
163
162
162
162
162
161
160
159
158
158
158
157
157
157
156
156
156
155
154
154
153
151
151
151
150
149
149
149
149
148
147
146
146
145
145
144
144
143
143
143
140
140
140
140
140
139
138
138
138
137
137
136
136
136
136
136
135
134
134
133
133
133
132
131
130
130
129
128
128
128
128
128
128
128
127
126
125
125
125
125
124
124
124
123
122
121
120
120
119
119
117
117
116
116
116
115
115
115
114
114
113
112
111
111
111
108
108
108
107
107
107
106
103
103
102
102
102
102
101
101
101
101
101
100
100
100
99
98
97
97
96
95
95
95
94
94
94
94
94
93
93
91
91
91
90
90
90
89
89
88
88
87
86
86
86
85
85
83
83
82
82
81
81
81
81
81
81
81
81
80
80
80
79
78
78
77
77
77
76
